2
Lattice="21.167088422553647 0.0 0.0 0.0 22.22544284368133 0.0 0.0 0.0 20.108734001425965" Properties=species:S:1:pos:R:3:forces:R:3:energies:R:1 energy=-9.68927990036281 stress="-2.965918019108297e-10 0.0 0.0 0.0 0.0 0.0 0.0 0.0 0.0" free_energy=-9.68927990036281 pbc="F F F"
O        9.96532552      11.11272142      10.05436700      -0.01176572       0.00000000       0.00000000      -4.84463995
O       11.20176290      11.11272142      10.05436700       0.01176572       0.00000000       0.00000000      -4.84463995
