2
Lattice="21.167088422553647 0.0 0.0 0.0 22.22544284368133 0.0 0.0 0.0 20.108734001425965" Properties=species:S:1:pos:R:3:momenta:R:3 pbc="F F F"
O        9.94853156      11.11272142      10.05436700       0.07542134       0.30818668       0.66642485
O       11.21855686      11.11272142      10.05436700       0.38969404       0.24945455       0.76109440
2
Lattice="21.167088422553647 0.0 0.0 0.0 22.22544284368133 0.0 0.0 0.0 20.108734001425965" Properties=species:S:1:pos:R:3:momenta:R:3:forces:R:3 energy=-864.2889411634613 stress="-0.0 -0.0 -0.0 -0.0 -0.0 -0.0 -0.0 -0.0 -0.0" pbc="F F F"
O        9.94853156      11.11272142      10.05436700       0.07542134       0.30818668       0.66642485       2.83946030      -0.00003660       0.00000628
O       11.21855686      11.11272142      10.05436700       0.38969404       0.24945455       0.76109440      -2.83890956      -0.00004606      -0.00000967
2
Lattice="21.167088422553647 0.0 0.0 0.0 22.22544284368133 0.0 0.0 0.0 20.108734001425965" Properties=species:S:1:pos:R:3:momenta:R:3:forces:R:3 energy=-864.3512901177578 stress="-0.0 -0.0 -0.0 -0.0 -0.0 -0.0 -0.0 -0.0 -0.0" pbc="F F F"
O        9.97074072      11.12421966      10.07747621       1.21600078       0.42850503       0.78662263       1.21819978      -0.00715693      -0.00319126
O       11.21055931      11.11825289      10.07485284      -0.75506403       0.12317486       0.62596984      -1.21652193       0.00508255       0.00191718
2
Lattice="21.167088422553647 0.0 0.0 0.0 22.22544284368133 0.0 0.0 0.0 20.108734001425965" Properties=species:S:1:pos:R:3:momenta:R:3:forces:R:3 energy=-864.3104497650696 stress="-0.0 -0.0 -0.0 -0.0 -0.0 -0.0 -0.0 -0.0 -0.0" pbc="F F F"
O       10.00612313      11.13635096      10.10185889       0.68892132       0.38050055       0.87365015      -2.93294255       0.03354849       0.02290610
O       11.18924983      11.12296176      10.09363901      -0.23349847       0.16519854       0.52699922       2.92966535      -0.03374840      -0.01705485
